<?xml version = "1.0" encoding="UTF-8" standalone="yes"?>
<CPLEXSolution version="1.2">
 <header
   problemName="IloCplex"
   solutionName="incumbent"
   solutionIndex="-1"
   objectiveValue="54370000"
   solutionTypeValue="3"
   solutionTypeString="primal"
   solutionStatusValue="101"
   solutionStatusString="integer optimal solution"
   solutionMethodString="mip"
   primalFeasible="1"
   dualFeasible="1"
   MIPNodes="0"
   MIPIterations="30"
   writeLevel="1"/>
 <quality
   epInt="1e-05"
   epRHS="1e-06"
   maxIntInfeas="0"
   maxPrimalInfeas="0"
   maxX="68100000"
   maxSlack="30000"/>
 <linearConstraints>
  <constraint index="0" slack="0"/>
  <constraint index="1" slack="0"/>
  <constraint index="2" slack="0"/>
  <constraint index="3" slack="0"/>
  <constraint index="4" slack="0"/>
  <constraint index="5" slack="0"/>
  <constraint index="6" slack="0"/>
  <constraint index="7" slack="0"/>
  <constraint index="8" slack="0"/>
  <constraint index="9" slack="0"/>
  <constraint index="10" slack="0"/>
  <constraint index="11" slack="0"/>
  <constraint index="12" slack="0"/>
  <constraint index="13" slack="0"/>
  <constraint index="14" slack="0"/>
  <constraint index="15" slack="0"/>
  <constraint index="16" slack="0"/>
  <constraint index="17" slack="0"/>
  <constraint index="18" slack="0"/>
  <constraint index="19" slack="0"/>
  <constraint index="20" slack="0"/>
  <constraint index="21" slack="0"/>
  <constraint index="22" slack="0"/>
  <constraint index="23" slack="0"/>
  <constraint index="24" slack="0"/>
  <constraint index="25" slack="0"/>
  <constraint index="26" slack="0"/>
  <constraint index="27" slack="0"/>
  <constraint index="28" slack="0"/>
  <constraint index="29" slack="0"/>
  <constraint index="30" slack="0"/>
  <constraint index="31" slack="0"/>
  <constraint index="32" slack="0"/>
  <constraint index="33" slack="0"/>
  <constraint index="34" slack="0"/>
  <constraint index="35" slack="0"/>
  <constraint index="36" slack="1"/>
  <constraint index="37" slack="2000"/>
  <constraint index="38" slack="0"/>
  <constraint index="39" slack="0"/>
  <constraint index="40" slack="0"/>
  <constraint index="41" slack="0"/>
  <constraint index="42" slack="0"/>
  <constraint index="43" slack="0"/>
  <constraint index="44" slack="0"/>
  <constraint index="45" slack="0"/>
  <constraint index="46" slack="24000"/>
  <constraint index="47" slack="0"/>
  <constraint index="48" slack="0"/>
  <constraint index="49" slack="30000"/>
  <constraint index="50" slack="0"/>
  <constraint index="51" slack="4000"/>
  <constraint index="52" slack="14000"/>
  <constraint index="53" slack="0"/>
  <constraint index="54" slack="0"/>
  <constraint index="55" slack="4000"/>
  <constraint index="56" slack="0"/>
  <constraint index="57" slack="0"/>
  <constraint index="58" slack="4000"/>
  <constraint index="59" slack="0"/>
  <constraint index="60" slack="0"/>
  <constraint index="61" slack="14000"/>
  <constraint index="62" slack="0"/>
  <constraint index="63" slack="0"/>
  <constraint index="64" slack="19000"/>
  <constraint index="65" slack="0"/>
  <constraint index="66" slack="0"/>
  <constraint index="67" slack="9000"/>
  <constraint index="68" slack="0"/>
  <constraint index="69" slack="0"/>
  <constraint index="70" slack="4000"/>
  <constraint index="71" slack="0"/>
  <constraint index="72" slack="0"/>
  <constraint index="73" slack="0"/>
  <constraint index="74" slack="0"/>
  <constraint index="75" slack="0"/>
  <constraint index="76" slack="0"/>
  <constraint index="77" slack="0"/>
  <constraint index="78" slack="0"/>
  <constraint index="79" slack="0"/>
  <constraint index="80" slack="0"/>
  <constraint index="81" slack="0"/>
  <constraint index="82" slack="0"/>
  <constraint index="83" slack="0"/>
  <constraint index="84" slack="0"/>
  <constraint index="85" slack="0"/>
  <constraint index="86" slack="0"/>
  <constraint index="87" slack="0"/>
  <constraint index="88" slack="0"/>
  <constraint index="89" slack="0"/>
  <constraint index="90" slack="0"/>
  <constraint index="91" slack="0"/>
  <constraint index="92" slack="0"/>
  <constraint index="93" slack="0"/>
  <constraint index="94" slack="0"/>
  <constraint index="95" slack="0"/>
  <constraint index="96" slack="0"/>
  <constraint index="97" slack="0"/>
  <constraint index="98" slack="0"/>
  <constraint index="99" slack="0"/>
  <constraint index="100" slack="0"/>
  <constraint index="101" slack="0"/>
  <constraint index="102" slack="0"/>
  <constraint index="103" slack="0"/>
  <constraint index="104" slack="0"/>
  <constraint index="105" slack="0"/>
  <constraint index="106" slack="0"/>
  <constraint index="107" slack="0"/>
  <constraint index="108" slack="0"/>
  <constraint index="109" slack="0"/>
  <constraint index="110" slack="0"/>
  <constraint index="111" slack="0"/>
  <constraint index="112" slack="0"/>
  <constraint index="113" slack="0"/>
  <constraint index="114" slack="0"/>
 </linearConstraints>
 <variables>
  <variable name="Y[product=0 ; periode=0]" index="0" value="-0"/>
  <variable name="X[product=0 ; periode=1]" index="1" value="62000"/>
  <variable name="Y[product=0 ; periode=1]" index="2" value="12000"/>
  <variable name="X[product=0 ; periode=2]" index="3" value="64000"/>
  <variable name="Y[product=0 ; periode=2]" index="4" value="16000"/>
  <variable name="X[product=0 ; periode=3]" index="5" value="44000"/>
  <variable name="Y[product=0 ; periode=3]" index="6" value="-0"/>
  <variable name="X[product=0 ; periode=4]" index="7" value="40000"/>
  <variable name="Y[product=0 ; periode=4]" index="8" value="-0"/>
  <variable name="X[product=0 ; periode=5]" index="9" value="40000"/>
  <variable name="Y[product=0 ; periode=5]" index="10" value="-0"/>
  <variable name="X[product=0 ; periode=6]" index="11" value="50000"/>
  <variable name="Y[product=0 ; periode=6]" index="12" value="-0"/>
  <variable name="X[product=0 ; periode=7]" index="13" value="60000"/>
  <variable name="Y[product=0 ; periode=7]" index="14" value="-0"/>
  <variable name="X[product=0 ; periode=8]" index="15" value="50000"/>
  <variable name="Y[product=0 ; periode=8]" index="16" value="-0"/>
  <variable name="X[product=0 ; periode=9]" index="17" value="50000"/>
  <variable name="Y[product=0 ; periode=9]" index="18" value="-0"/>
  <variable name="X[product=0 ; periode=10]" index="19" value="60000"/>
  <variable name="Y[product=0 ; periode=10]" index="20" value="-0"/>
  <variable name="X[product=0 ; periode=11]" index="21" value="60000"/>
  <variable name="Y[product=0 ; periode=11]" index="22" value="-0"/>
  <variable name="X[product=0 ; periode=12]" index="23" value="50000"/>
  <variable name="Y[product=0 ; periode=12]" index="24" value="-0"/>
  <variable name="Y[product=1 ; periode=0]" index="25" value="-0"/>
  <variable name="X[product=1 ; periode=1]" index="26" value="50000"/>
  <variable name="Y[product=1 ; periode=1]" index="27" value="-0"/>
  <variable name="X[product=1 ; periode=2]" index="28" value="50000"/>
  <variable name="Y[product=1 ; periode=2]" index="29" value="-0"/>
  <variable name="X[product=1 ; periode=3]" index="30" value="70000"/>
  <variable name="Y[product=1 ; periode=3]" index="31" value="-0"/>
  <variable name="X[product=1 ; periode=4]" index="32" value="50000"/>
  <variable name="Y[product=1 ; periode=4]" index="33" value="-0"/>
  <variable name="X[product=1 ; periode=5]" index="34" value="40000"/>
  <variable name="Y[product=1 ; periode=5]" index="35" value="-0"/>
  <variable name="X[product=1 ; periode=6]" index="36" value="50000"/>
  <variable name="Y[product=1 ; periode=6]" index="37" value="-0"/>
  <variable name="X[product=1 ; periode=7]" index="38" value="50000"/>
  <variable name="Y[product=1 ; periode=7]" index="39" value="-0"/>
  <variable name="X[product=1 ; periode=8]" index="40" value="60000"/>
  <variable name="Y[product=1 ; periode=8]" index="41" value="-0"/>
  <variable name="X[product=1 ; periode=9]" index="42" value="50000"/>
  <variable name="Y[product=1 ; periode=9]" index="43" value="-0"/>
  <variable name="X[product=1 ; periode=10]" index="44" value="35000"/>
  <variable name="Y[product=1 ; periode=10]" index="45" value="-0"/>
  <variable name="X[product=1 ; periode=11]" index="46" value="45000"/>
  <variable name="Y[product=1 ; periode=11]" index="47" value="-0"/>
  <variable name="X[product=1 ; periode=12]" index="48" value="60000"/>
  <variable name="Y[product=1 ; periode=12]" index="49" value="-0"/>
  <variable name="L[periode=1]" index="50" value="2000"/>
  <variable name="Z[investiment=0 ; machine=0]" index="51" value="1"/>
  <variable name="Z[investiment=0 ; machine=1]" index="52" value="1"/>
  <variable name="Z[investiment=0 ; machine=2]" index="53" value="1"/>
  <variable name="Z[investiment=0 ; machine=3]" index="54" value="0"/>
  <variable name="Z[investiment=0 ; machine=4]" index="55" value="0"/>
  <variable name="Z[investiment=0 ; machine=5]" index="56" value="0"/>
  <variable name="Z[investiment=0 ; machine=6]" index="57" value="0"/>
  <variable name="Z[investiment=0 ; machine=7]" index="58" value="0"/>
  <variable name="Z[investiment=0 ; machine=8]" index="59" value="0"/>
  <variable name="Z[investiment=0 ; machine=9]" index="60" value="0"/>
  <variable name="Z[investiment=1 ; machine=0]" index="61" value="0"/>
  <variable name="Z[investiment=1 ; machine=1]" index="62" value="0"/>
  <variable name="Z[investiment=1 ; machine=2]" index="63" value="0"/>
  <variable name="Z[investiment=1 ; machine=3]" index="64" value="0"/>
  <variable name="Z[investiment=1 ; machine=4]" index="65" value="0"/>
  <variable name="Z[investiment=1 ; machine=5]" index="66" value="0"/>
  <variable name="Z[investiment=1 ; machine=6]" index="67" value="0"/>
  <variable name="Z[investiment=1 ; machine=7]" index="68" value="0"/>
  <variable name="Z[investiment=1 ; machine=8]" index="69" value="0"/>
  <variable name="Z[investiment=1 ; machine=9]" index="70" value="0"/>
  <variable name="Z[investiment=2 ; machine=0]" index="71" value="1"/>
  <variable name="Z[investiment=2 ; machine=1]" index="72" value="1"/>
  <variable name="Z[investiment=2 ; machine=2]" index="73" value="1"/>
  <variable name="Z[investiment=2 ; machine=3]" index="74" value="1"/>
  <variable name="Z[investiment=2 ; machine=4]" index="75" value="1"/>
  <variable name="Z[investiment=2 ; machine=5]" index="76" value="1"/>
  <variable name="Z[investiment=2 ; machine=6]" index="77" value="0"/>
  <variable name="Z[investiment=2 ; machine=7]" index="78" value="0"/>
  <variable name="Z[investiment=2 ; machine=8]" index="79" value="0"/>
  <variable name="Z[investiment=2 ; machine=9]" index="80" value="0"/>
  <variable name="L[periode=2]" index="81" value="-0"/>
  <variable name="L[periode=3]" index="82" value="-0"/>
  <variable name="L[periode=4]" index="83" value="24000"/>
  <variable name="L[periode=5]" index="84" value="34000"/>
  <variable name="L[periode=6]" index="85" value="14000"/>
  <variable name="L[periode=7]" index="86" value="4000"/>
  <variable name="L[periode=8]" index="87" value="4000"/>
  <variable name="L[periode=9]" index="88" value="14000"/>
  <variable name="L[periode=10]" index="89" value="19000"/>
  <variable name="L[periode=11]" index="90" value="9000"/>
  <variable name="L[periode=12]" index="91" value="4000"/>
  <variable name="R[investiment=0 ; periode=1]" index="92" value="28000"/>
  <variable name="R[investiment=1 ; periode=1]" index="93" value="0"/>
  <variable name="R[investiment=2 ; periode=1]" index="94" value="84000"/>
  <variable name="R[investiment=0 ; periode=2]" index="95" value="30000"/>
  <variable name="R[investiment=1 ; periode=2]" index="96" value="0"/>
  <variable name="R[investiment=2 ; periode=2]" index="97" value="84000"/>
  <variable name="R[investiment=0 ; periode=3]" index="98" value="30000"/>
  <variable name="R[investiment=1 ; periode=3]" index="99" value="0"/>
  <variable name="R[investiment=2 ; periode=3]" index="100" value="84000"/>
  <variable name="R[investiment=0 ; periode=4]" index="101" value="6000"/>
  <variable name="R[investiment=1 ; periode=4]" index="102" value="0"/>
  <variable name="R[investiment=2 ; periode=4]" index="103" value="84000"/>
  <variable name="R[investiment=0 ; periode=5]" index="104" value="-0"/>
  <variable name="R[investiment=1 ; periode=5]" index="105" value="0"/>
  <variable name="R[investiment=2 ; periode=5]" index="106" value="80000"/>
  <variable name="R[investiment=0 ; periode=6]" index="107" value="16000"/>
  <variable name="R[investiment=1 ; periode=6]" index="108" value="0"/>
  <variable name="R[investiment=2 ; periode=6]" index="109" value="84000"/>
  <variable name="R[investiment=0 ; periode=7]" index="110" value="26000"/>
  <variable name="R[investiment=1 ; periode=7]" index="111" value="0"/>
  <variable name="R[investiment=2 ; periode=7]" index="112" value="84000"/>
  <variable name="R[investiment=0 ; periode=8]" index="113" value="26000"/>
  <variable name="R[investiment=1 ; periode=8]" index="114" value="0"/>
  <variable name="R[investiment=2 ; periode=8]" index="115" value="84000"/>
  <variable name="R[investiment=0 ; periode=9]" index="116" value="16000"/>
  <variable name="R[investiment=1 ; periode=9]" index="117" value="0"/>
  <variable name="R[investiment=2 ; periode=9]" index="118" value="84000"/>
  <variable name="R[investiment=0 ; periode=10]" index="119" value="11000"/>
  <variable name="R[investiment=1 ; periode=10]" index="120" value="0"/>
  <variable name="R[investiment=2 ; periode=10]" index="121" value="84000"/>
  <variable name="R[investiment=0 ; periode=11]" index="122" value="21000"/>
  <variable name="R[investiment=1 ; periode=11]" index="123" value="0"/>
  <variable name="R[investiment=2 ; periode=11]" index="124" value="84000"/>
  <variable name="R[investiment=0 ; periode=12]" index="125" value="26000"/>
  <variable name="R[investiment=1 ; periode=12]" index="126" value="0"/>
  <variable name="R[investiment=2 ; periode=12]" index="127" value="84000"/>
  <variable name="x129" index="128" value="68100000"/>
 </variables>
</CPLEXSolution>
